p cnf 887 2607
c inputs: 1 2 3 4 5 6 7 8 9 10 11 12 13 14 15 16 17 18
c variables for gates: 19 ... 869
c outputs: 870 871 872 873 874 875 876 877 878 879 880 881 882 883 884 885 886 887
c random input: -1 -2 -3 4 -5 6 7 -8 -9 10 -11 12 13 14 15 16 17 18
19 -1 -10 0
-19 1 0
-19 10 0
20 -2 -10 0
-20 2 0
-20 10 0
21 -3 -10 0
-21 3 0
-21 10 0
22 -4 -10 0
-22 4 0
-22 10 0
23 -5 -10 0
-23 5 0
-23 10 0
24 -6 -10 0
-24 6 0
-24 10 0
25 -7 -10 0
-25 7 0
-25 10 0
26 -8 -10 0
-26 8 0
-26 10 0
27 -9 -10 0
-27 9 0
-27 10 0
28 -1 -11 0
-28 1 0
-28 11 0
29 -2 -11 0
-29 2 0
-29 11 0
30 -3 -11 0
-30 3 0
-30 11 0
31 -4 -11 0
-31 4 0
-31 11 0
32 -5 -11 0
-32 5 0
-32 11 0
33 -6 -11 0
-33 6 0
-33 11 0
34 -7 -11 0
-34 7 0
-34 11 0
35 -8 -11 0
-35 8 0
-35 11 0
36 -9 -11 0
-36 9 0
-36 11 0
37 -1 -12 0
-37 1 0
-37 12 0
38 -2 -12 0
-38 2 0
-38 12 0
39 -3 -12 0
-39 3 0
-39 12 0
40 -4 -12 0
-40 4 0
-40 12 0
41 -5 -12 0
-41 5 0
-41 12 0
42 -6 -12 0
-42 6 0
-42 12 0
43 -7 -12 0
-43 7 0
-43 12 0
44 -8 -12 0
-44 8 0
-44 12 0
45 -9 -12 0
-45 9 0
-45 12 0
46 -1 -13 0
-46 1 0
-46 13 0
47 -2 -13 0
-47 2 0
-47 13 0
48 -3 -13 0
-48 3 0
-48 13 0
49 -4 -13 0
-49 4 0
-49 13 0
50 -5 -13 0
-50 5 0
-50 13 0
51 -6 -13 0
-51 6 0
-51 13 0
52 -7 -13 0
-52 7 0
-52 13 0
53 -8 -13 0
-53 8 0
-53 13 0
54 -9 -13 0
-54 9 0
-54 13 0
55 -1 -14 0
-55 1 0
-55 14 0
56 -2 -14 0
-56 2 0
-56 14 0
57 -3 -14 0
-57 3 0
-57 14 0
58 -4 -14 0
-58 4 0
-58 14 0
59 -5 -14 0
-59 5 0
-59 14 0
60 -6 -14 0
-60 6 0
-60 14 0
61 -7 -14 0
-61 7 0
-61 14 0
62 -8 -14 0
-62 8 0
-62 14 0
63 -9 -14 0
-63 9 0
-63 14 0
64 -1 -15 0
-64 1 0
-64 15 0
65 -2 -15 0
-65 2 0
-65 15 0
66 -3 -15 0
-66 3 0
-66 15 0
67 -4 -15 0
-67 4 0
-67 15 0
68 -5 -15 0
-68 5 0
-68 15 0
69 -6 -15 0
-69 6 0
-69 15 0
70 -7 -15 0
-70 7 0
-70 15 0
71 -8 -15 0
-71 8 0
-71 15 0
72 -9 -15 0
-72 9 0
-72 15 0
73 -1 -16 0
-73 1 0
-73 16 0
74 -2 -16 0
-74 2 0
-74 16 0
75 -3 -16 0
-75 3 0
-75 16 0
76 -4 -16 0
-76 4 0
-76 16 0
77 -5 -16 0
-77 5 0
-77 16 0
78 -6 -16 0
-78 6 0
-78 16 0
79 -7 -16 0
-79 7 0
-79 16 0
80 -8 -16 0
-80 8 0
-80 16 0
81 -9 -16 0
-81 9 0
-81 16 0
82 -1 -17 0
-82 1 0
-82 17 0
83 -2 -17 0
-83 2 0
-83 17 0
84 -3 -17 0
-84 3 0
-84 17 0
85 -4 -17 0
-85 4 0
-85 17 0
86 -5 -17 0
-86 5 0
-86 17 0
87 -6 -17 0
-87 6 0
-87 17 0
88 -7 -17 0
-88 7 0
-88 17 0
89 -8 -17 0
-89 8 0
-89 17 0
90 -9 -17 0
-90 9 0
-90 17 0
91 -1 -18 0
-91 1 0
-91 18 0
92 -2 -18 0
-92 2 0
-92 18 0
93 -3 -18 0
-93 3 0
-93 18 0
94 -4 -18 0
-94 4 0
-94 18 0
95 -5 -18 0
-95 5 0
-95 18 0
96 -6 -18 0
-96 6 0
-96 18 0
97 -7 -18 0
-97 7 0
-97 18 0
98 -8 -18 0
-98 8 0
-98 18 0
99 -9 -18 0
-99 9 0
-99 18 0
100 -20 -28 0
-100 20 0
-100 28 0
101 -20 28 0
-101 20 0
-101 -28 0
102 -28 20 0
-102 28 0
-102 -20 0
103 102 101 0
-103 -102 0
-103 -101 0
104 -29 -21 0
-104 29 0
-104 21 0
105 -21 -37 0
-105 21 0
-105 37 0
106 -29 -37 0
-106 29 0
-106 37 0
107 105 106 0
-107 -105 0
-107 -106 0
108 104 -107 0
-108 -104 0
-108 107 0
109 -29 37 0
-109 29 0
-109 -37 0
110 -37 29 0
-110 37 0
-110 -29 0
111 110 109 0
-111 -110 0
-111 -109 0
112 -21 -111 0
-112 21 0
-112 111 0
113 21 111 0
-113 -21 0
-113 -111 0
114 112 113 0
-114 -112 0
-114 -113 0
115 -22 -30 0
-115 22 0
-115 30 0
116 -22 -38 0
-116 22 0
-116 38 0
117 -38 -30 0
-117 38 0
-117 30 0
118 116 117 0
-118 -116 0
-118 -117 0
119 115 -118 0
-119 -115 0
-119 118 0
120 -30 38 0
-120 30 0
-120 -38 0
121 -38 30 0
-121 38 0
-121 -30 0
122 120 121 0
-122 -120 0
-122 -121 0
123 -22 -122 0
-123 22 0
-123 122 0
124 22 122 0
-124 -22 0
-124 -122 0
125 123 124 0
-125 -123 0
-125 -124 0
126 -31 -23 0
-126 31 0
-126 23 0
127 -23 -39 0
-127 23 0
-127 39 0
128 -31 -39 0
-128 31 0
-128 39 0
129 128 127 0
-129 -128 0
-129 -127 0
130 126 -129 0
-130 -126 0
-130 129 0
131 -31 39 0
-131 31 0
-131 -39 0
132 -39 31 0
-132 39 0
-132 -31 0
133 132 131 0
-133 -132 0
-133 -131 0
134 -23 -133 0
-134 23 0
-134 133 0
135 23 133 0
-135 -23 0
-135 -133 0
136 134 135 0
-136 -134 0
-136 -135 0
137 -24 -32 0
-137 24 0
-137 32 0
138 -24 -40 0
-138 24 0
-138 40 0
139 -40 -32 0
-139 40 0
-139 32 0
140 138 139 0
-140 -138 0
-140 -139 0
141 137 -140 0
-141 -137 0
-141 140 0
142 -32 40 0
-142 32 0
-142 -40 0
143 -40 32 0
-143 40 0
-143 -32 0
144 142 143 0
-144 -142 0
-144 -143 0
145 -24 -144 0
-145 24 0
-145 144 0
146 24 144 0
-146 -24 0
-146 -144 0
147 145 146 0
-147 -145 0
-147 -146 0
148 -33 -25 0
-148 33 0
-148 25 0
149 -25 -41 0
-149 25 0
-149 41 0
150 -33 -41 0
-150 33 0
-150 41 0
151 149 150 0
-151 -149 0
-151 -150 0
152 148 -151 0
-152 -148 0
-152 151 0
153 -33 41 0
-153 33 0
-153 -41 0
154 -41 33 0
-154 41 0
-154 -33 0
155 153 154 0
-155 -153 0
-155 -154 0
156 -25 -155 0
-156 25 0
-156 155 0
157 25 155 0
-157 -25 0
-157 -155 0
158 156 157 0
-158 -156 0
-158 -157 0
159 -34 -26 0
-159 34 0
-159 26 0
160 -42 -26 0
-160 42 0
-160 26 0
161 -42 -34 0
-161 42 0
-161 34 0
162 160 161 0
-162 -160 0
-162 -161 0
163 159 -162 0
-163 -159 0
-163 162 0
164 -34 42 0
-164 34 0
-164 -42 0
165 -42 34 0
-165 42 0
-165 -34 0
166 165 164 0
-166 -165 0
-166 -164 0
167 -26 -166 0
-167 26 0
-167 166 0
168 26 166 0
-168 -26 0
-168 -166 0
169 167 168 0
-169 -167 0
-169 -168 0
170 -27 -35 0
-170 27 0
-170 35 0
171 -43 -27 0
-171 43 0
-171 27 0
172 -43 -35 0
-172 43 0
-172 35 0
173 172 171 0
-173 -172 0
-173 -171 0
174 170 -173 0
-174 -170 0
-174 173 0
175 -35 43 0
-175 35 0
-175 -43 0
176 -43 35 0
-176 43 0
-176 -35 0
177 175 176 0
-177 -175 0
-177 -176 0
178 -27 -177 0
-178 27 0
-178 177 0
179 27 177 0
-179 -27 0
-179 -177 0
180 178 179 0
-180 -178 0
-180 -179 0
181 -36 -44 0
-181 36 0
-181 44 0
182 -36 44 0
-182 36 0
-182 -44 0
183 -44 36 0
-183 44 0
-183 -36 0
184 182 183 0
-184 -182 0
-184 -183 0
185 -47 -55 0
-185 47 0
-185 55 0
186 -47 55 0
-186 47 0
-186 -55 0
187 -55 47 0
-187 55 0
-187 -47 0
188 187 186 0
-188 -187 0
-188 -186 0
189 -56 -48 0
-189 56 0
-189 48 0
190 -48 -64 0
-190 48 0
-190 64 0
191 -56 -64 0
-191 56 0
-191 64 0
192 190 191 0
-192 -190 0
-192 -191 0
193 189 -192 0
-193 -189 0
-193 192 0
194 -56 64 0
-194 56 0
-194 -64 0
195 -64 56 0
-195 64 0
-195 -56 0
196 195 194 0
-196 -195 0
-196 -194 0
197 -48 -196 0
-197 48 0
-197 196 0
198 48 196 0
-198 -48 0
-198 -196 0
199 197 198 0
-199 -197 0
-199 -198 0
200 -49 -57 0
-200 49 0
-200 57 0
201 -49 -65 0
-201 49 0
-201 65 0
202 -65 -57 0
-202 65 0
-202 57 0
203 201 202 0
-203 -201 0
-203 -202 0
204 200 -203 0
-204 -200 0
-204 203 0
205 -57 65 0
-205 57 0
-205 -65 0
206 -65 57 0
-206 65 0
-206 -57 0
207 205 206 0
-207 -205 0
-207 -206 0
208 -49 -207 0
-208 49 0
-208 207 0
209 49 207 0
-209 -49 0
-209 -207 0
210 208 209 0
-210 -208 0
-210 -209 0
211 -58 -50 0
-211 58 0
-211 50 0
212 -50 -66 0
-212 50 0
-212 66 0
213 -58 -66 0
-213 58 0
-213 66 0
214 213 212 0
-214 -213 0
-214 -212 0
215 211 -214 0
-215 -211 0
-215 214 0
216 -58 66 0
-216 58 0
-216 -66 0
217 -66 58 0
-217 66 0
-217 -58 0
218 217 216 0
-218 -217 0
-218 -216 0
219 -50 -218 0
-219 50 0
-219 218 0
220 50 218 0
-220 -50 0
-220 -218 0
221 219 220 0
-221 -219 0
-221 -220 0
222 -51 -59 0
-222 51 0
-222 59 0
223 -51 -67 0
-223 51 0
-223 67 0
224 -67 -59 0
-224 67 0
-224 59 0
225 223 224 0
-225 -223 0
-225 -224 0
226 222 -225 0
-226 -222 0
-226 225 0
227 -59 67 0
-227 59 0
-227 -67 0
228 -67 59 0
-228 67 0
-228 -59 0
229 227 228 0
-229 -227 0
-229 -228 0
230 -51 -229 0
-230 51 0
-230 229 0
231 51 229 0
-231 -51 0
-231 -229 0
232 230 231 0
-232 -230 0
-232 -231 0
233 -60 -52 0
-233 60 0
-233 52 0
234 -52 -68 0
-234 52 0
-234 68 0
235 -60 -68 0
-235 60 0
-235 68 0
236 235 234 0
-236 -235 0
-236 -234 0
237 233 -236 0
-237 -233 0
-237 236 0
238 -60 68 0
-238 60 0
-238 -68 0
239 -68 60 0
-239 68 0
-239 -60 0
240 238 239 0
-240 -238 0
-240 -239 0
241 -52 -240 0
-241 52 0
-241 240 0
242 52 240 0
-242 -52 0
-242 -240 0
243 241 242 0
-243 -241 0
-243 -242 0
244 -61 -53 0
-244 61 0
-244 53 0
245 -69 -53 0
-245 69 0
-245 53 0
246 -69 -61 0
-246 69 0
-246 61 0
247 246 245 0
-247 -246 0
-247 -245 0
248 244 -247 0
-248 -244 0
-248 247 0
249 -61 69 0
-249 61 0
-249 -69 0
250 -69 61 0
-250 69 0
-250 -61 0
251 250 249 0
-251 -250 0
-251 -249 0
252 -53 -251 0
-252 53 0
-252 251 0
253 53 251 0
-253 -53 0
-253 -251 0
254 252 253 0
-254 -252 0
-254 -253 0
255 -54 -62 0
-255 54 0
-255 62 0
256 -70 -54 0
-256 70 0
-256 54 0
257 -70 -62 0
-257 70 0
-257 62 0
258 256 257 0
-258 -256 0
-258 -257 0
259 255 -258 0
-259 -255 0
-259 258 0
260 -62 70 0
-260 62 0
-260 -70 0
261 -70 62 0
-261 70 0
-261 -62 0
262 260 261 0
-262 -260 0
-262 -261 0
263 -54 -262 0
-263 54 0
-263 262 0
264 54 262 0
-264 -54 0
-264 -262 0
265 263 264 0
-265 -263 0
-265 -264 0
266 -63 -71 0
-266 63 0
-266 71 0
267 -63 71 0
-267 63 0
-267 -71 0
268 -71 63 0
-268 71 0
-268 -63 0
269 267 268 0
-269 -267 0
-269 -268 0
270 -74 -82 0
-270 74 0
-270 82 0
271 -74 82 0
-271 74 0
-271 -82 0
272 -82 74 0
-272 82 0
-272 -74 0
273 272 271 0
-273 -272 0
-273 -271 0
274 -83 -75 0
-274 83 0
-274 75 0
275 -75 -91 0
-275 75 0
-275 91 0
276 -83 -91 0
-276 83 0
-276 91 0
277 275 276 0
-277 -275 0
-277 -276 0
278 274 -277 0
-278 -274 0
-278 277 0
279 -83 91 0
-279 83 0
-279 -91 0
280 -91 83 0
-280 91 0
-280 -83 0
281 280 279 0
-281 -280 0
-281 -279 0
282 -75 -281 0
-282 75 0
-282 281 0
283 75 281 0
-283 -75 0
-283 -281 0
284 282 283 0
-284 -282 0
-284 -283 0
285 -76 -84 0
-285 76 0
-285 84 0
286 -76 -92 0
-286 76 0
-286 92 0
287 -92 -84 0
-287 92 0
-287 84 0
288 286 287 0
-288 -286 0
-288 -287 0
289 285 -288 0
-289 -285 0
-289 288 0
290 -84 92 0
-290 84 0
-290 -92 0
291 -92 84 0
-291 92 0
-291 -84 0
292 290 291 0
-292 -290 0
-292 -291 0
293 -76 -292 0
-293 76 0
-293 292 0
294 76 292 0
-294 -76 0
-294 -292 0
295 293 294 0
-295 -293 0
-295 -294 0
296 -85 -77 0
-296 85 0
-296 77 0
297 -77 -93 0
-297 77 0
-297 93 0
298 -85 -93 0
-298 85 0
-298 93 0
299 297 298 0
-299 -297 0
-299 -298 0
300 296 -299 0
-300 -296 0
-300 299 0
301 -85 93 0
-301 85 0
-301 -93 0
302 -93 85 0
-302 93 0
-302 -85 0
303 302 301 0
-303 -302 0
-303 -301 0
304 -77 -303 0
-304 77 0
-304 303 0
305 77 303 0
-305 -77 0
-305 -303 0
306 304 305 0
-306 -304 0
-306 -305 0
307 -78 -86 0
-307 78 0
-307 86 0
308 -78 -94 0
-308 78 0
-308 94 0
309 -94 -86 0
-309 94 0
-309 86 0
310 309 308 0
-310 -309 0
-310 -308 0
311 307 -310 0
-311 -307 0
-311 310 0
312 -86 94 0
-312 86 0
-312 -94 0
313 -94 86 0
-313 94 0
-313 -86 0
314 312 313 0
-314 -312 0
-314 -313 0
315 -78 -314 0
-315 78 0
-315 314 0
316 78 314 0
-316 -78 0
-316 -314 0
317 315 316 0
-317 -315 0
-317 -316 0
318 -87 -79 0
-318 87 0
-318 79 0
319 -79 -95 0
-319 79 0
-319 95 0
320 -87 -95 0
-320 87 0
-320 95 0
321 320 319 0
-321 -320 0
-321 -319 0
322 318 -321 0
-322 -318 0
-322 321 0
323 -87 95 0
-323 87 0
-323 -95 0
324 -95 87 0
-324 95 0
-324 -87 0
325 323 324 0
-325 -323 0
-325 -324 0
326 -79 -325 0
-326 79 0
-326 325 0
327 79 325 0
-327 -79 0
-327 -325 0
328 326 327 0
-328 -326 0
-328 -327 0
329 -88 -80 0
-329 88 0
-329 80 0
330 -96 -80 0
-330 96 0
-330 80 0
331 -96 -88 0
-331 96 0
-331 88 0
332 330 331 0
-332 -330 0
-332 -331 0
333 329 -332 0
-333 -329 0
-333 332 0
334 -88 96 0
-334 88 0
-334 -96 0
335 -96 88 0
-335 96 0
-335 -88 0
336 335 334 0
-336 -335 0
-336 -334 0
337 -80 -336 0
-337 80 0
-337 336 0
338 80 336 0
-338 -80 0
-338 -336 0
339 337 338 0
-339 -337 0
-339 -338 0
340 -81 -89 0
-340 81 0
-340 89 0
341 -97 -81 0
-341 97 0
-341 81 0
342 -97 -89 0
-342 97 0
-342 89 0
343 341 342 0
-343 -341 0
-343 -342 0
344 340 -343 0
-344 -340 0
-344 343 0
345 -89 97 0
-345 89 0
-345 -97 0
346 -97 89 0
-346 97 0
-346 -89 0
347 345 346 0
-347 -345 0
-347 -346 0
348 -81 -347 0
-348 81 0
-348 347 0
349 81 347 0
-349 -81 0
-349 -347 0
350 348 349 0
-350 -348 0
-350 -349 0
351 -90 -98 0
-351 90 0
-351 98 0
352 -90 98 0
-352 90 0
-352 -98 0
353 -98 90 0
-353 98 0
-353 -90 0
354 352 353 0
-354 -352 0
-354 -353 0
355 -100 114 0
-355 100 0
-355 -114 0
356 100 114 0
-356 -100 0
-356 -114 0
357 -100 -114 0
-357 100 0
-357 114 0
358 357 356 0
-358 -357 0
-358 -356 0
359 108 125 0
-359 -108 0
-359 -125 0
360 -46 125 0
-360 46 0
-360 -125 0
361 -46 108 0
-361 46 0
-361 -108 0
362 361 360 0
-362 -361 0
-362 -360 0
363 -362 359 0
-363 362 0
-363 -359 0
364 46 108 0
-364 -46 0
-364 -108 0
365 -46 -108 0
-365 46 0
-365 108 0
366 365 364 0
-366 -365 0
-366 -364 0
367 125 -366 0
-367 -125 0
-367 366 0
368 -125 366 0
-368 125 0
-368 -366 0
369 368 367 0
-369 -368 0
-369 -367 0
370 119 136 0
-370 -119 0
-370 -136 0
371 188 136 0
-371 -188 0
-371 -136 0
372 188 119 0
-372 -188 0
-372 -119 0
373 372 371 0
-373 -372 0
-373 -371 0
374 370 -373 0
-374 -370 0
-374 373 0
375 -188 119 0
-375 188 0
-375 -119 0
376 188 -119 0
-376 -188 0
-376 119 0
377 375 376 0
-377 -375 0
-377 -376 0
378 136 -377 0
-378 -136 0
-378 377 0
379 -136 377 0
-379 136 0
-379 -377 0
380 379 378 0
-380 -379 0
-380 -378 0
381 130 147 0
-381 -130 0
-381 -147 0
382 147 199 0
-382 -147 0
-382 -199 0
383 130 199 0
-383 -130 0
-383 -199 0
384 383 382 0
-384 -383 0
-384 -382 0
385 381 -384 0
-385 -381 0
-385 384 0
386 130 -199 0
-386 -130 0
-386 199 0
387 -130 199 0
-387 130 0
-387 -199 0
388 386 387 0
-388 -386 0
-388 -387 0
389 147 -388 0
-389 -147 0
-389 388 0
390 -147 388 0
-390 147 0
-390 -388 0
391 389 390 0
-391 -389 0
-391 -390 0
392 141 158 0
-392 -141 0
-392 -158 0
393 158 210 0
-393 -158 0
-393 -210 0
394 141 210 0
-394 -141 0
-394 -210 0
395 394 393 0
-395 -394 0
-395 -393 0
396 392 -395 0
-396 -392 0
-396 395 0
397 141 -210 0
-397 -141 0
-397 210 0
398 -141 210 0
-398 141 0
-398 -210 0
399 397 398 0
-399 -397 0
-399 -398 0
400 158 -399 0
-400 -158 0
-400 399 0
401 -158 399 0
-401 158 0
-401 -399 0
402 400 401 0
-402 -400 0
-402 -401 0
403 152 169 0
-403 -152 0
-403 -169 0
404 169 221 0
-404 -169 0
-404 -221 0
405 152 221 0
-405 -152 0
-405 -221 0
406 405 404 0
-406 -405 0
-406 -404 0
407 403 -406 0
-407 -403 0
-407 406 0
408 152 -221 0
-408 -152 0
-408 221 0
409 -152 221 0
-409 152 0
-409 -221 0
410 408 409 0
-410 -408 0
-410 -409 0
411 169 -410 0
-411 -169 0
-411 410 0
412 -169 410 0
-412 169 0
-412 -410 0
413 412 411 0
-413 -412 0
-413 -411 0
414 163 180 0
-414 -163 0
-414 -180 0
415 232 180 0
-415 -232 0
-415 -180 0
416 163 232 0
-416 -163 0
-416 -232 0
417 416 415 0
-417 -416 0
-417 -415 0
418 414 -417 0
-418 -414 0
-418 417 0
419 163 -232 0
-419 -163 0
-419 232 0
420 -163 232 0
-420 163 0
-420 -232 0
421 419 420 0
-421 -419 0
-421 -420 0
422 180 -421 0
-422 -180 0
-422 421 0
423 -180 421 0
-423 180 0
-423 -421 0
424 423 422 0
-424 -423 0
-424 -422 0
425 184 174 0
-425 -184 0
-425 -174 0
426 184 243 0
-426 -184 0
-426 -243 0
427 174 243 0
-427 -174 0
-427 -243 0
428 426 427 0
-428 -426 0
-428 -427 0
429 425 -428 0
-429 -425 0
-429 428 0
430 174 -243 0
-430 -174 0
-430 243 0
431 -174 243 0
-431 174 0
-431 -243 0
432 430 431 0
-432 -430 0
-432 -431 0
433 184 -432 0
-433 -184 0
-433 432 0
434 -184 432 0
-434 184 0
-434 -432 0
435 434 433 0
-435 -434 0
-435 -433 0
436 -45 -181 0
-436 45 0
-436 181 0
437 -45 254 0
-437 45 0
-437 -254 0
438 -181 254 0
-438 181 0
-438 -254 0
439 437 438 0
-439 -437 0
-439 -438 0
440 436 -439 0
-440 -436 0
-440 439 0
441 -181 -254 0
-441 181 0
-441 254 0
442 181 254 0
-442 -181 0
-442 -254 0
443 441 442 0
-443 -441 0
-443 -442 0
444 -45 -443 0
-444 45 0
-444 443 0
445 45 443 0
-445 -45 0
-445 -443 0
446 445 444 0
-446 -445 0
-446 -444 0
447 -73 193 0
-447 73 0
-447 -193 0
448 73 193 0
-448 -73 0
-448 -193 0
449 -73 -193 0
-449 73 0
-449 193 0
450 449 448 0
-450 -449 0
-450 -448 0
451 273 204 0
-451 -273 0
-451 -204 0
452 -273 204 0
-452 273 0
-452 -204 0
453 273 -204 0
-453 -273 0
-453 204 0
454 452 453 0
-454 -452 0
-454 -453 0
455 215 284 0
-455 -215 0
-455 -284 0
456 -270 215 0
-456 270 0
-456 -215 0
457 -270 284 0
-457 270 0
-457 -284 0
458 456 457 0
-458 -456 0
-458 -457 0
459 455 -458 0
-459 -455 0
-459 458 0
460 270 284 0
-460 -270 0
-460 -284 0
461 -270 -284 0
-461 270 0
-461 284 0
462 461 460 0
-462 -461 0
-462 -460 0
463 215 -462 0
-463 -215 0
-463 462 0
464 -215 462 0
-464 215 0
-464 -462 0
465 464 463 0
-465 -464 0
-465 -463 0
466 226 295 0
-466 -226 0
-466 -295 0
467 226 278 0
-467 -226 0
-467 -278 0
468 278 295 0
-468 -278 0
-468 -295 0
469 467 468 0
-469 -467 0
-469 -468 0
470 -469 466 0
-470 469 0
-470 -466 0
471 -278 295 0
-471 278 0
-471 -295 0
472 278 -295 0
-472 -278 0
-472 295 0
473 472 471 0
-473 -472 0
-473 -471 0
474 226 -473 0
-474 -226 0
-474 473 0
475 -226 473 0
-475 226 0
-475 -473 0
476 474 475 0
-476 -474 0
-476 -475 0
477 237 306 0
-477 -237 0
-477 -306 0
478 237 289 0
-478 -237 0
-478 -289 0
479 289 306 0
-479 -289 0
-479 -306 0
480 478 479 0
-480 -478 0
-480 -479 0
481 -480 477 0
-481 480 0
-481 -477 0
482 -289 306 0
-482 289 0
-482 -306 0
483 289 -306 0
-483 -289 0
-483 306 0
484 483 482 0
-484 -483 0
-484 -482 0
485 237 -484 0
-485 -237 0
-485 484 0
486 -237 484 0
-486 237 0
-486 -484 0
487 485 486 0
-487 -485 0
-487 -486 0
488 248 317 0
-488 -248 0
-488 -317 0
489 248 300 0
-489 -248 0
-489 -300 0
490 300 317 0
-490 -300 0
-490 -317 0
491 489 490 0
-491 -489 0
-491 -490 0
492 -491 488 0
-492 491 0
-492 -488 0
493 -300 317 0
-493 300 0
-493 -317 0
494 300 -317 0
-494 -300 0
-494 317 0
495 494 493 0
-495 -494 0
-495 -493 0
496 248 -495 0
-496 -248 0
-496 495 0
497 -248 495 0
-497 248 0
-497 -495 0
498 496 497 0
-498 -496 0
-498 -497 0
499 259 328 0
-499 -259 0
-499 -328 0
500 311 259 0
-500 -311 0
-500 -259 0
501 311 328 0
-501 -311 0
-501 -328 0
502 500 501 0
-502 -500 0
-502 -501 0
503 -502 499 0
-503 502 0
-503 -499 0
504 -311 328 0
-504 311 0
-504 -328 0
505 311 -328 0
-505 -311 0
-505 328 0
506 505 504 0
-506 -505 0
-506 -504 0
507 259 -506 0
-507 -259 0
-507 506 0
508 -259 506 0
-508 259 0
-508 -506 0
509 507 508 0
-509 -507 0
-509 -508 0
510 -266 339 0
-510 266 0
-510 -339 0
511 -266 322 0
-511 266 0
-511 -322 0
512 322 339 0
-512 -322 0
-512 -339 0
513 511 512 0
-513 -511 0
-513 -512 0
514 510 -513 0
-514 -510 0
-514 513 0
515 -322 339 0
-515 322 0
-515 -339 0
516 322 -339 0
-516 -322 0
-516 339 0
517 516 515 0
-517 -516 0
-517 -515 0
518 -266 -517 0
-518 266 0
-518 517 0
519 266 517 0
-519 -266 0
-519 -517 0
520 519 518 0
-520 -519 0
-520 -518 0
521 333 350 0
-521 -333 0
-521 -350 0
522 -333 350 0
-522 333 0
-522 -350 0
523 333 -350 0
-523 -333 0
-523 350 0
524 523 522 0
-524 -523 0
-524 -522 0
525 354 344 0
-525 -354 0
-525 -344 0
526 354 -344 0
-526 -354 0
-526 344 0
527 -354 344 0
-527 354 0
-527 -344 0
528 527 526 0
-528 -527 0
-528 -526 0
529 -99 -351 0
-529 99 0
-529 351 0
530 -99 351 0
-530 99 0
-530 -351 0
531 99 -351 0
-531 -99 0
-531 351 0
532 531 530 0
-532 -531 0
-532 -530 0
533 -355 369 0
-533 355 0
-533 -369 0
534 355 369 0
-534 -355 0
-534 -369 0
535 -355 -369 0
-535 355 0
-535 369 0
536 535 534 0
-536 -535 0
-536 -534 0
537 363 380 0
-537 -363 0
-537 -380 0
538 -363 380 0
-538 363 0
-538 -380 0
539 363 -380 0
-539 -363 0
-539 380 0
540 539 538 0
-540 -539 0
-540 -538 0
541 374 391 0
-541 -374 0
-541 -391 0
542 -185 391 0
-542 185 0
-542 -391 0
543 -185 374 0
-543 185 0
-543 -374 0
544 543 542 0
-544 -543 0
-544 -542 0
545 541 -544 0
-545 -541 0
-545 544 0
546 185 374 0
-546 -185 0
-546 -374 0
547 -185 -374 0
-547 185 0
-547 374 0
548 546 547 0
-548 -546 0
-548 -547 0
549 391 -548 0
-549 -391 0
-549 548 0
550 -391 548 0
-550 391 0
-550 -548 0
551 550 549 0
-551 -550 0
-551 -549 0
552 402 385 0
-552 -402 0
-552 -385 0
553 450 402 0
-553 -450 0
-553 -402 0
554 450 385 0
-554 -450 0
-554 -385 0
555 554 553 0
-555 -554 0
-555 -553 0
556 552 -555 0
-556 -552 0
-556 555 0
557 -450 385 0
-557 450 0
-557 -385 0
558 450 -385 0
-558 -450 0
-558 385 0
559 557 558 0
-559 -557 0
-559 -558 0
560 -559 402 0
-560 559 0
-560 -402 0
561 559 -402 0
-561 -559 0
-561 402 0
562 561 560 0
-562 -561 0
-562 -560 0
563 413 396 0
-563 -413 0
-563 -396 0
564 413 454 0
-564 -413 0
-564 -454 0
565 454 396 0
-565 -454 0
-565 -396 0
566 564 565 0
-566 -564 0
-566 -565 0
567 563 -566 0
-567 -563 0
-567 566 0
568 -454 396 0
-568 454 0
-568 -396 0
569 454 -396 0
-569 -454 0
-569 396 0
570 568 569 0
-570 -568 0
-570 -569 0
571 -570 413 0
-571 570 0
-571 -413 0
572 570 -413 0
-572 -570 0
-572 413 0
573 571 572 0
-573 -571 0
-573 -572 0
574 424 407 0
-574 -424 0
-574 -407 0
575 465 424 0
-575 -465 0
-575 -424 0
576 465 407 0
-576 -465 0
-576 -407 0
577 575 576 0
-577 -575 0
-577 -576 0
578 574 -577 0
-578 -574 0
-578 577 0
579 -465 407 0
-579 465 0
-579 -407 0
580 465 -407 0
-580 -465 0
-580 407 0
581 580 579 0
-581 -580 0
-581 -579 0
582 424 -581 0
-582 -424 0
-582 581 0
583 -424 581 0
-583 424 0
-583 -581 0
584 582 583 0
-584 -582 0
-584 -583 0
585 435 418 0
-585 -435 0
-585 -418 0
586 435 476 0
-586 -435 0
-586 -476 0
587 476 418 0
-587 -476 0
-587 -418 0
588 586 587 0
-588 -586 0
-588 -587 0
589 -588 585 0
-589 588 0
-589 -585 0
590 -476 418 0
-590 476 0
-590 -418 0
591 476 -418 0
-591 -476 0
-591 418 0
592 591 590 0
-592 -591 0
-592 -590 0
593 -592 435 0
-593 592 0
-593 -435 0
594 592 -435 0
-594 -592 0
-594 435 0
595 593 594 0
-595 -593 0
-595 -594 0
596 446 429 0
-596 -446 0
-596 -429 0
597 446 487 0
-597 -446 0
-597 -487 0
598 487 429 0
-598 -487 0
-598 -429 0
599 598 597 0
-599 -598 0
-599 -597 0
600 -599 596 0
-600 599 0
-600 -596 0
601 -487 429 0
-601 487 0
-601 -429 0
602 487 -429 0
-602 -487 0
-602 429 0
603 602 601 0
-603 -602 0
-603 -601 0
604 -603 446 0
-604 603 0
-604 -446 0
605 603 -446 0
-605 -603 0
-605 446 0
606 605 604 0
-606 -605 0
-606 -604 0
607 265 440 0
-607 -265 0
-607 -440 0
608 265 498 0
-608 -265 0
-608 -498 0
609 440 498 0
-609 -440 0
-609 -498 0
610 608 609 0
-610 -608 0
-610 -609 0
611 -610 607 0
-611 610 0
-611 -607 0
612 440 -498 0
-612 -440 0
-612 498 0
613 -440 498 0
-613 440 0
-613 -498 0
614 613 612 0
-614 -613 0
-614 -612 0
615 265 -614 0
-615 -265 0
-615 614 0
616 -265 614 0
-616 265 0
-616 -614 0
617 616 615 0
-617 -616 0
-617 -615 0
618 269 509 0
-618 -269 0
-618 -509 0
619 269 -509 0
-619 -269 0
-619 509 0
620 -269 509 0
-620 269 0
-620 -509 0
621 619 620 0
-621 -619 0
-621 -620 0
622 -72 520 0
-622 72 0
-622 -520 0
623 -72 -520 0
-623 72 0
-623 520 0
624 72 520 0
-624 -72 0
-624 -520 0
625 623 624 0
-625 -623 0
-625 -624 0
626 540 -533 0
-626 -540 0
-626 533 0
627 540 533 0
-627 -540 0
-627 -533 0
628 -540 -533 0
-628 540 0
-628 533 0
629 628 627 0
-629 -628 0
-629 -627 0
630 -537 551 0
-630 537 0
-630 -551 0
631 537 551 0
-631 -537 0
-631 -551 0
632 -537 -551 0
-632 537 0
-632 551 0
633 631 632 0
-633 -631 0
-633 -632 0
634 545 562 0
-634 -545 0
-634 -562 0
635 -545 562 0
-635 545 0
-635 -562 0
636 545 -562 0
-636 -545 0
-636 562 0
637 635 636 0
-637 -635 0
-637 -636 0
638 556 573 0
-638 -556 0
-638 -573 0
639 -447 573 0
-639 447 0
-639 -573 0
640 -447 556 0
-640 447 0
-640 -556 0
641 639 640 0
-641 -639 0
-641 -640 0
642 -641 638 0
-642 641 0
-642 -638 0
643 447 556 0
-643 -447 0
-643 -556 0
644 -447 -556 0
-644 447 0
-644 556 0
645 643 644 0
-645 -643 0
-645 -644 0
646 -645 573 0
-646 645 0
-646 -573 0
647 645 -573 0
-647 -645 0
-647 573 0
648 646 647 0
-648 -646 0
-648 -647 0
649 584 567 0
-649 -584 0
-649 -567 0
650 -451 584 0
-650 451 0
-650 -584 0
651 -451 567 0
-651 451 0
-651 -567 0
652 651 650 0
-652 -651 0
-652 -650 0
653 -652 649 0
-653 652 0
-653 -649 0
654 451 567 0
-654 -451 0
-654 -567 0
655 -451 -567 0
-655 451 0
-655 567 0
656 655 654 0
-656 -655 0
-656 -654 0
657 -656 584 0
-657 656 0
-657 -584 0
658 656 -584 0
-658 -656 0
-658 584 0
659 657 658 0
-659 -657 0
-659 -658 0
660 578 595 0
-660 -578 0
-660 -595 0
661 459 595 0
-661 -459 0
-661 -595 0
662 459 578 0
-662 -459 0
-662 -578 0
663 661 662 0
-663 -661 0
-663 -662 0
664 660 -663 0
-664 -660 0
-664 663 0
665 -459 578 0
-665 459 0
-665 -578 0
666 459 -578 0
-666 -459 0
-666 578 0
667 665 666 0
-667 -665 0
-667 -666 0
668 -667 595 0
-668 667 0
-668 -595 0
669 667 -595 0
-669 -667 0
-669 595 0
670 668 669 0
-670 -668 0
-670 -669 0
671 606 589 0
-671 -606 0
-671 -589 0
672 606 470 0
-672 -606 0
-672 -470 0
673 470 589 0
-673 -470 0
-673 -589 0
674 673 672 0
-674 -673 0
-674 -672 0
675 -674 671 0
-675 674 0
-675 -671 0
676 -470 589 0
-676 470 0
-676 -589 0
677 470 -589 0
-677 -470 0
-677 589 0
678 676 677 0
-678 -676 0
-678 -677 0
679 -678 606 0
-679 678 0
-679 -606 0
680 678 -606 0
-680 -678 0
-680 606 0
681 679 680 0
-681 -679 0
-681 -680 0
682 617 600 0
-682 -617 0
-682 -600 0
683 617 481 0
-683 -617 0
-683 -481 0
684 481 600 0
-684 -481 0
-684 -600 0
685 684 683 0
-685 -684 0
-685 -683 0
686 -685 682 0
-686 685 0
-686 -682 0
687 -481 600 0
-687 481 0
-687 -600 0
688 481 -600 0
-688 -481 0
-688 600 0
689 688 687 0
-689 -688 0
-689 -687 0
690 617 -689 0
-690 -617 0
-690 689 0
691 -617 689 0
-691 617 0
-691 -689 0
692 690 691 0
-692 -690 0
-692 -691 0
693 611 621 0
-693 -611 0
-693 -621 0
694 492 621 0
-694 -492 0
-694 -621 0
695 611 492 0
-695 -611 0
-695 -492 0
696 694 695 0
-696 -694 0
-696 -695 0
697 693 -696 0
-697 -693 0
-697 696 0
698 611 -492 0
-698 -611 0
-698 492 0
699 -611 492 0
-699 611 0
-699 -492 0
700 699 698 0
-700 -699 0
-700 -698 0
701 -700 621 0
-701 700 0
-701 -621 0
702 700 -621 0
-702 -700 0
-702 621 0
703 702 701 0
-703 -702 0
-703 -701 0
704 -618 625 0
-704 618 0
-704 -625 0
705 625 503 0
-705 -625 0
-705 -503 0
706 -618 503 0
-706 618 0
-706 -503 0
707 706 705 0
-707 -706 0
-707 -705 0
708 -707 704 0
-708 707 0
-708 -704 0
709 -618 -503 0
-709 618 0
-709 503 0
710 618 503 0
-710 -618 0
-710 -503 0
711 709 710 0
-711 -709 0
-711 -710 0
712 625 -711 0
-712 -625 0
-712 711 0
713 -625 711 0
-713 625 0
-713 -711 0
714 712 713 0
-714 -712 0
-714 -713 0
715 524 -622 0
-715 -524 0
-715 622 0
716 524 514 0
-716 -524 0
-716 -514 0
717 514 -622 0
-717 -514 0
-717 622 0
718 717 716 0
-718 -717 0
-718 -716 0
719 -718 715 0
-719 718 0
-719 -715 0
720 -514 -622 0
-720 514 0
-720 622 0
721 514 622 0
-721 -514 0
-721 -622 0
722 721 720 0
-722 -721 0
-722 -720 0
723 524 -722 0
-723 -524 0
-723 722 0
724 -524 722 0
-724 524 0
-724 -722 0
725 724 723 0
-725 -724 0
-725 -723 0
726 -521 528 0
-726 521 0
-726 -528 0
727 521 528 0
-727 -521 0
-727 -528 0
728 -521 -528 0
-728 521 0
-728 528 0
729 727 728 0
-729 -727 0
-729 -728 0
730 532 -525 0
-730 -532 0
-730 525 0
731 532 525 0
-731 -532 0
-731 -525 0
732 -532 -525 0
-732 532 0
-732 525 0
733 731 732 0
-733 -731 0
-733 -732 0
734 626 633 0
-734 -626 0
-734 -633 0
735 -626 -633 0
-735 626 0
-735 633 0
736 734 735 0
-736 -734 0
-736 -735 0
737 -626 633 0
-737 626 0
-737 -633 0
738 630 637 0
-738 -630 0
-738 -637 0
739 -630 -637 0
-739 630 0
-739 637 0
740 738 739 0
-740 -738 0
-740 -739 0
741 -737 -740 0
-741 737 0
-741 740 0
742 737 740 0
-742 -737 0
-742 -740 0
743 741 742 0
-743 -741 0
-743 -742 0
744 -737 637 0
-744 737 0
-744 -637 0
745 -630 -737 0
-745 630 0
-745 737 0
746 -630 637 0
-746 630 0
-746 -637 0
747 746 745 0
-747 -746 0
-747 -745 0
748 744 -747 0
-748 -744 0
-748 747 0
749 634 648 0
-749 -634 0
-749 -648 0
750 -634 -648 0
-750 634 0
-750 648 0
751 750 749 0
-751 -750 0
-751 -749 0
752 748 -751 0
-752 -748 0
-752 751 0
753 -748 751 0
-753 748 0
-753 -751 0
754 752 753 0
-754 -752 0
-754 -753 0
755 748 648 0
-755 -748 0
-755 -648 0
756 -634 748 0
-756 634 0
-756 -748 0
757 -634 648 0
-757 634 0
-757 -648 0
758 756 757 0
-758 -756 0
-758 -757 0
759 755 -758 0
-759 -755 0
-759 758 0
760 -642 659 0
-760 642 0
-760 -659 0
761 642 -659 0
-761 -642 0
-761 659 0
762 761 760 0
-762 -761 0
-762 -760 0
763 759 -762 0
-763 -759 0
-763 762 0
764 -759 762 0
-764 759 0
-764 -762 0
765 764 763 0
-765 -764 0
-765 -763 0
766 759 659 0
-766 -759 0
-766 -659 0
767 759 642 0
-767 -759 0
-767 -642 0
768 642 659 0
-768 -642 0
-768 -659 0
769 767 768 0
-769 -767 0
-769 -768 0
770 -769 766 0
-770 769 0
-770 -766 0
771 -653 670 0
-771 653 0
-771 -670 0
772 653 -670 0
-772 -653 0
-772 670 0
773 771 772 0
-773 -771 0
-773 -772 0
774 770 -773 0
-774 -770 0
-774 773 0
775 -770 773 0
-775 770 0
-775 -773 0
776 775 774 0
-776 -775 0
-776 -774 0
777 770 670 0
-777 -770 0
-777 -670 0
778 653 770 0
-778 -653 0
-778 -770 0
779 653 670 0
-779 -653 0
-779 -670 0
780 778 779 0
-780 -778 0
-780 -779 0
781 777 -780 0
-781 -777 0
-781 780 0
782 681 -664 0
-782 -681 0
-782 664 0
783 -681 664 0
-783 681 0
-783 -664 0
784 782 783 0
-784 -782 0
-784 -783 0
785 -784 781 0
-785 784 0
-785 -781 0
786 784 -781 0
-786 -784 0
-786 781 0
787 785 786 0
-787 -785 0
-787 -786 0
788 681 781 0
-788 -681 0
-788 -781 0
789 664 781 0
-789 -664 0
-789 -781 0
790 681 664 0
-790 -681 0
-790 -664 0
791 789 790 0
-791 -789 0
-791 -790 0
792 788 -791 0
-792 -788 0
-792 791 0
793 692 -675 0
-793 -692 0
-793 675 0
794 -692 675 0
-794 692 0
-794 -675 0
795 793 794 0
-795 -793 0
-795 -794 0
796 -795 792 0
-796 795 0
-796 -792 0
797 795 -792 0
-797 -795 0
-797 792 0
798 796 797 0
-798 -796 0
-798 -797 0
799 692 792 0
-799 -692 0
-799 -792 0
800 792 675 0
-800 -792 0
-800 -675 0
801 692 675 0
-801 -692 0
-801 -675 0
802 801 800 0
-802 -801 0
-802 -800 0
803 -802 799 0
-803 802 0
-803 -799 0
804 -686 703 0
-804 686 0
-804 -703 0
805 686 -703 0
-805 -686 0
-805 703 0
806 804 805 0
-806 -804 0
-806 -805 0
807 803 -806 0
-807 -803 0
-807 806 0
808 -803 806 0
-808 803 0
-808 -806 0
809 808 807 0
-809 -808 0
-809 -807 0
810 703 803 0
-810 -703 0
-810 -803 0
811 686 803 0
-811 -686 0
-811 -803 0
812 686 703 0
-812 -686 0
-812 -703 0
813 811 812 0
-813 -811 0
-813 -812 0
814 810 -813 0
-814 -810 0
-814 813 0
815 714 -697 0
-815 -714 0
-815 697 0
816 -714 697 0
-816 714 0
-816 -697 0
817 816 815 0
-817 -816 0
-817 -815 0
818 -817 814 0
-818 817 0
-818 -814 0
819 817 -814 0
-819 -817 0
-819 814 0
820 819 818 0
-820 -819 0
-820 -818 0
821 714 814 0
-821 -714 0
-821 -814 0
822 697 814 0
-822 -697 0
-822 -814 0
823 714 697 0
-823 -714 0
-823 -697 0
824 822 823 0
-824 -822 0
-824 -823 0
825 821 -824 0
-825 -821 0
-825 824 0
826 725 -708 0
-826 -725 0
-826 708 0
827 -725 708 0
-827 725 0
-827 -708 0
828 826 827 0
-828 -826 0
-828 -827 0
829 825 -828 0
-829 -825 0
-829 828 0
830 -825 828 0
-830 825 0
-830 -828 0
831 829 830 0
-831 -829 0
-831 -830 0
832 825 725 0
-832 -825 0
-832 -725 0
833 825 708 0
-833 -825 0
-833 -708 0
834 725 708 0
-834 -725 0
-834 -708 0
835 834 833 0
-835 -834 0
-835 -833 0
836 -835 832 0
-836 835 0
-836 -832 0
837 -719 729 0
-837 719 0
-837 -729 0
838 719 -729 0
-838 -719 0
-838 729 0
839 838 837 0
-839 -838 0
-839 -837 0
840 -839 836 0
-840 839 0
-840 -836 0
841 839 -836 0
-841 -839 0
-841 836 0
842 841 840 0
-842 -841 0
-842 -840 0
843 836 729 0
-843 -836 0
-843 -729 0
844 719 836 0
-844 -719 0
-844 -836 0
845 719 729 0
-845 -719 0
-845 -729 0
846 845 844 0
-846 -845 0
-846 -844 0
847 -846 843 0
-847 846 0
-847 -843 0
848 726 733 0
-848 -726 0
-848 -733 0
849 -726 -733 0
-849 726 0
-849 733 0
850 848 849 0
-850 -848 0
-850 -849 0
851 847 -850 0
-851 -847 0
-851 850 0
852 -847 850 0
-852 847 0
-852 -850 0
853 852 851 0
-853 -852 0
-853 -851 0
854 733 847 0
-854 -733 0
-854 -847 0
855 -726 847 0
-855 726 0
-855 -847 0
856 -726 733 0
-856 726 0
-856 -733 0
857 856 855 0
-857 -856 0
-857 -855 0
858 854 -857 0
-858 -854 0
-858 857 0
859 -529 730 0
-859 529 0
-859 -730 0
860 529 -730 0
-860 -529 0
-860 730 0
861 860 859 0
-861 -860 0
-861 -859 0
862 -861 858 0
-862 861 0
-862 -858 0
863 861 -858 0
-863 -861 0
-863 858 0
864 862 863 0
-864 -862 0
-864 -863 0
865 -529 858 0
-865 529 0
-865 -858 0
866 -730 858 0
-866 730 0
-866 -858 0
867 -529 -730 0
-867 529 0
-867 730 0
868 866 867 0
-868 -866 0
-868 -867 0
869 -868 865 0
-869 868 0
-869 -865 0
-870 19 0
870 -19 0
-871 -103 0
871 103 0
-872 -358 0
872 358 0
-873 -536 0
873 536 0
-874 -629 0
874 629 0
-875 -736 0
875 736 0
-876 -743 0
876 743 0
-877 -754 0
877 754 0
-878 -765 0
878 765 0
-879 -776 0
879 776 0
-880 -787 0
880 787 0
-881 -798 0
881 798 0
-882 -809 0
882 809 0
-883 -820 0
883 820 0
-884 -831 0
884 831 0
-885 -842 0
885 842 0
-886 -853 0
886 853 0
-887 -864 0
887 864 0
-870 0
-871 0
-872 0
873 0
-874 0
-875 0
876 0
877 0
-878 0
879 0
880 0
881 0
-882 0
-883 0
884 0
885 0
-886 0
-887 0
